NAME      name
ROWS
 L  e1
 G  e2
 E  e3
 L  e4
 L  e5
 L  e6
 L  e7
 L  e8
 E  e9
 L  e10
 L  e11
 G  e12
 G  e13
 G  e14
 G  e15
 L  e16
 E  e17
 E  e18
 E  e19
 G  e20
COLUMNS
    x0        e1                 -10
    x0        e2                  -7
    x0        e3                  10
    x0        e4                   8
    x0        e5                   5
    x0        e6                   0
    x0        e7                  -5
    x0        e8                   6
    x0        e9                   8
    x0        e10                  4
    x0        e11                  0
    x0        e12                  7
    x0        e13                 -6
    x0        e14                  6
    x0        e15                 -1
    x0        e16                  3
    x0        e17                 -9
    x0        e18                  9
    x0        e19                 -8
    x0        e20                 -8
    x1        e1                   5
    x1        e2                  -5
    x1        e3                   9
    x1        e4                  -6
    x1        e5                   2
    x1        e6                   1
    x1        e7                  -2
    x1        e8                  -2
    x1        e9                  -7
    x1        e10                 -8
    x1        e11                 -6
    x1        e12                 -7
    x1        e13                  6
    x1        e14                  9
    x1        e15                  4
    x1        e16                 -6
    x1        e17                  6
    x1        e18                 -3
    x1        e19                  2
    x1        e20                  2
    x2        e1                   2
    x2        e2                   9
    x2        e3                  -7
    x2        e4                   8
    x2        e5                   2
    x2        e6                  -1
    x2        e7                   1
    x2        e8                  -7
    x2        e9                  -4
    x2        e10                  0
    x2        e11                 -4
    x2        e12                 -1
    x2        e13                -10
    x2        e14                  1
    x2        e15                  0
    x2        e16                 -5
    x2        e17                 -9
    x2        e18                  9
    x2        e19                -10
    x2        e20                -10
    x3        e1                   7
    x3        e2                   4
    x3        e3                  -1
    x3        e4                  -2
    x3        e5                  10
    x3        e6                   4
    x3        e7                  -7
    x3        e8                  -9
    x3        e9                  -1
    x3        e10                  6
    x3        e11                 -3
    x3        e12                  4
    x3        e13                  5
    x3        e14                  3
    x3        e15                  6
    x3        e16                  5
    x3        e17                 -8
    x3        e18                  8
    x3        e19                 -9
    x3        e20                 -9
    x4        e1                   1
    x4        e2                  10
    x4        e3                  -6
    x4        e4                  -8
    x4        e5                  -4
    x4        e6                   0
    x4        e7                  -7
    x4        e8                   2
    x4        e9                   2
    x4        e10                  3
    x4        e11                  9
    x4        e12                 -5
    x4        e13                 -6
    x4        e14                 -4
    x4        e15                  3
    x4        e16                 -4
    x4        e17                 -7
    x4        e18                  4
    x4        e19                 -4
    x4        e20                 -4
    x5        e1                   7
    x5        e2                  -6
    x5        e3                   6
    x5        e4                  -1
    x5        e5                  -8
    x5        e6                  -3
    x5        e7                   2
    x5        e8                  -8
    x5        e9                  -5
    x5        e10                 -1
    x5        e11                  7
    x5        e12                 -7
    x5        e13                -10
    x5        e14                  2
    x5        e15                  5
    x5        e16                 -5
    x5        e17                  8
    x5        e18                  9
    x5        e19                  0
    x5        e20                  0
    x6        e1                   5
    x6        e2                   5
    x6        e3                  -6
    x6        e4                   1
    x6        e5                   3
    x6        e6                  -5
    x6        e7                   0
    x6        e8                   2
    x6        e9                   6
    x6        e10                  4
    x6        e11                  0
    x6        e12                 -9
    x6        e13                 -8
    x6        e14                 -9
    x6        e15                  0
    x6        e16                  9
    x6        e17                 -6
    x6        e18                 -1
    x6        e19                  3
    x6        e20                  3
    x7        e1                   6
    x7        e2                   0
    x7        e3                  -6
    x7        e4                  -6
    x7        e5                  -2
    x7        e6                   4
    x7        e7                   0
    x7        e8                   4
    x7        e9                   4
    x7        e10                 -9
    x7        e11                  5
    x7        e12                  4
    x7        e13                  7
    x7        e14                  9
    x7        e15                 -2
    x7        e16                 -4
    x7        e17                 -6
    x7        e18                 -7
    x7        e19                 -3
    x7        e20                 -3
    x8        e1                   4
    x8        e2                   4
    x8        e3                  -8
    x8        e4                   4
    x8        e5                   5
    x8        e6                  -6
    x8        e7                  -1
    x8        e8                   5
    x8        e9                  -2
    x8        e10                 -6
    x8        e11                  0
    x8        e12                  6
    x8        e13                -10
    x8        e14                 -3
    x8        e15                  6
    x8        e16                 -8
    x8        e17                  8
    x8        e18                 -6
    x8        e19                  0
    x8        e20                  0
    x9        e1                   7
    x9        e2                  -6
    x9        e3                   0
    x9        e4                   1
    x9        e5                   3
    x9        e6                   0
    x9        e7                   0
    x9        e8                  -6
    x9        e9                   0
    x9        e10                  1
    x9        e11                  8
    x9        e12                  6
    x9        e13                 -6
    x9        e14                  8
    x9        e15                 -1
    x9        e16                 -2
    x9        e17                 -4
    x9        e18                  3
    x9        e19                  3
    x9        e20                  3
    x10       e1                   5
    x10       e2                   5
    x10       e3                  -4
    x10       e4                  -9
    x10       e5                   5
    x10       e6                  -3
    x10       e7                 -10
    x10       e8                  -6
    x10       e9                  10
    x10       e10                 -5
    x10       e11                 10
    x10       e12                  7
    x10       e13                 -7
    x10       e14                -10
    x10       e15                  4
    x10       e16                  6
    x10       e17                 10
    x10       e18                 -7
    x10       e19                  8
    x10       e20                  8
    x11       e1                   8
    x11       e2                  -2
    x11       e3                  -9
    x11       e4                   0
    x11       e5                   2
    x11       e6                   5
    x11       e7                  -4
    x11       e8                  -9
    x11       e9                  -5
    x11       e10                  5
    x11       e11                  5
    x11       e12                  9
    x11       e13                 -9
    x11       e14                  4
    x11       e15                  7
    x11       e16                  6
    x11       e17                  1
    x11       e18                 -4
    x11       e19                 -7
    x11       e20                 -7
    x12       e1                  -5
    x12       e2                   5
    x12       e3                 -10
    x12       e4                  -7
    x12       e5                  -6
    x12       e6                  -6
    x12       e7                  10
    x12       e8                  -7
    x12       e9                  10
    x12       e10                 -3
    x12       e11                  6
    x12       e12                  8
    x12       e13                  0
    x12       e14                -10
    x12       e15                  0
    x12       e16                 -5
    x12       e17                  1
    x12       e18                 -6
    x12       e19                  0
    x12       e20                  0
    x13       e1                   8
    x13       e2                   0
    x13       e3                   5
    x13       e4                  -7
    x13       e5                   3
    x13       e6                  -7
    x13       e7                  -1
    x13       e8                  -6
    x13       e9                   2
    x13       e10                 -3
    x13       e11                 -2
    x13       e12                  7
    x13       e13                 -1
    x13       e14                  3
    x13       e15                  2
    x13       e16                  8
    x13       e17                 -7
    x13       e18                 -5
    x13       e19                 -8
    x13       e20                 -8
    x14       e1                 -10
    x14       e2                   6
    x14       e3                   5
    x14       e4                   9
    x14       e5                  -4
    x14       e6                   7
    x14       e7                  10
    x14       e8                  10
    x14       e9                  -2
    x14       e10                 -8
    x14       e11                 -1
    x14       e12                  2
    x14       e13                 -4
    x14       e14                 -6
    x14       e15                  0
    x14       e16                 -5
    x14       e17                 -7
    x14       e18                 -2
    x14       e19                  5
    x14       e20                  5
    x15       e1                   9
    x15       e2                  -3
    x15       e3                  -8
    x15       e4                  -7
    x15       e5                   3
    x15       e6                   8
    x15       e7                  -5
    x15       e8                  -7
    x15       e9                  -5
    x15       e10                 -6
    x15       e11                -10
    x15       e12                  3
    x15       e13                 -8
    x15       e14                 -4
    x15       e15                  2
    x15       e16                  5
    x15       e17                  2
    x15       e18                 -2
    x15       e19                  9
    x15       e20                  9
    x16       e1                   1
    x16       e2                  -9
    x16       e3                   8
    x16       e4                  -1
    x16       e5                  10
    x16       e6                   9
    x16       e7                  -5
    x16       e8                   2
    x16       e9                  -5
    x16       e10                  4
    x16       e11                  9
    x16       e12                  0
    x16       e13                 -9
    x16       e14                 -8
    x16       e15                 -2
    x16       e16                 -7
    x16       e17                  5
    x16       e18                  0
    x16       e19                  5
    x16       e20                  5
    x17       e1                  -4
    x17       e2                   1
    x17       e3                   6
    x17       e4                  -1
    x17       e5                  -4
    x17       e6                   4
    x17       e7                   7
    x17       e8                   9
    x17       e9                  -8
    x17       e10                  3
    x17       e11                  9
    x17       e12                  9
    x17       e13                 -3
    x17       e14                  8
    x17       e15                -10
    x17       e16                  5
    x17       e17                 -6
    x17       e18                 -5
    x17       e19                 -1
    x17       e20                 -1
    x18       e1                  -1
    x18       e2                   6
    x18       e3                  -9
    x18       e4                   8
    x18       e5                  -2
    x18       e6                   0
    x18       e7                  -5
    x18       e8                  -7
    x18       e9                  -4
    x18       e10                 -7
    x18       e11                 -5
    x18       e12                  0
    x18       e13                 -5
    x18       e14                 10
    x18       e15                 -4
    x18       e16                 -3
    x18       e17                  0
    x18       e18                  4
    x18       e19                 -3
    x18       e20                 -3
    x19       e1                   3
    x19       e2                  -2
    x19       e3                  -6
    x19       e4                   1
    x19       e5                  -8
    x19       e6                  -5
    x19       e7                   5
    x19       e8                  -1
    x19       e9                  10
    x19       e10                  1
    x19       e11                 -2
    x19       e12                 -3
    x19       e13                  1
    x19       e14                 -6
    x19       e15                  4
    x19       e16                  3
    x19       e17                  8
    x19       e18                  0
    x19       e19                  2
    x19       e20                  2
RHS
    rhs       e1                  -3
    rhs       e2                   7
    rhs       e3                   4
    rhs       e4                 -10
    rhs       e5                   4
    rhs       e6                   0
    rhs       e7                  -8
    rhs       e8                   8
    rhs       e9                   1
    rhs       e10                 -7
    rhs       e11                  6
    rhs       e12                  5
    rhs       e13                 10
    rhs       e14                 -2
    rhs       e15                  2
    rhs       e16                 -7
    rhs       e17                 -4
    rhs       e18                 -7
    rhs       e19                 -9
    rhs       e20                 -8
BOUNDS
 LO bnd       x0                   0
 LO bnd       x1                   0
 LO bnd       x2                   0
 LO bnd       x3                   0
 LO bnd       x4                   0
 LO bnd       x5                   0
 LO bnd       x6                   0
 LO bnd       x7                   0
 LO bnd       x8                   0
 LO bnd       x9                   0
 LO bnd       x10                  0
 LO bnd       x11                  0
 LO bnd       x12                  0
 LO bnd       x13                  0
 LO bnd       x14                  0
 LO bnd       x15                  0
 LO bnd       x16                  0
 LO bnd       x17                  0
 LO bnd       x18                  0
 LO bnd       x19                  0
 UP bnd       x0                   5
 UP bnd       x1                   5
 UP bnd       x2                   2
 UP bnd       x3                   1
 UP bnd       x4                   8
 UP bnd       x5                   4
 UP bnd       x6                   7
 UP bnd       x7                   0
 UP bnd       x8                   9
 UP bnd       x9                  10
 UP bnd       x10                  2
 UP bnd       x11                  2
 UP bnd       x12                  8
 UP bnd       x13                  9
 UP bnd       x14                  5
 UP bnd       x15                 10
 UP bnd       x16                  7
 UP bnd       x17                  1
 UP bnd       x18                  6
 UP bnd       x19                  4
ENDATA
